NAME          
ROWS
 N  OBJ
 L  c1
COLUMNS
    MARKER    'MARKER'                 'INTORG'
    x[1]      c1        377
    x[1]      OBJ       -591
    x[2]      c1        502
    x[2]      OBJ       -765
    x[3]      c1        693
    x[3]      OBJ       -774
    x[4]      c1        946
    x[4]      OBJ       -925
    x[5]      c1        186
    x[5]      OBJ       -743
    x[6]      c1        867
    x[6]      OBJ       -826
    x[7]      c1        531
    x[7]      OBJ       -137
    x[8]      c1        232
    x[8]      OBJ       -509
    x[9]      c1        301
    x[9]      OBJ       -293
    x[10]     c1        901
    x[10]     OBJ       -731
    x[11]     c1        655
    x[11]     OBJ       -347
    x[12]     c1        88
    x[12]     OBJ       -539
    x[13]     c1        492
    x[13]     OBJ       -587
    x[14]     c1        496
    x[14]     OBJ       -549
    x[15]     c1        176
    x[15]     OBJ       -1
    x[16]     c1        470
    x[16]     OBJ       -344
    x[17]     c1        182
    x[17]     OBJ       -526
    x[18]     c1        935
    x[18]     OBJ       -819
    x[19]     c1        79
    x[19]     OBJ       -879
    x[20]     c1        593
    x[20]     OBJ       -122
    x[21]     c1        947
    x[21]     OBJ       -802
    x[22]     c1        914
    x[22]     OBJ       -178
    x[23]     c1        798
    x[23]     OBJ       -429
    x[24]     c1        637
    x[24]     OBJ       -370
    x[25]     c1        223
    x[25]     OBJ       -610
    x[26]     c1        208
    x[26]     OBJ       -173
    x[27]     c1        488
    x[27]     OBJ       -228
    x[28]     c1        950
    x[28]     OBJ       -392
    x[29]     c1        35
    x[29]     OBJ       -259
    x[30]     c1        6
    x[30]     OBJ       -940
RHS
    rhs       c1        7454
RANGES
BOUNDS
 BV bounds    x[1]
 BV bounds    x[2]
 BV bounds    x[3]
 BV bounds    x[4]
 BV bounds    x[5]
 BV bounds    x[6]
 BV bounds    x[7]
 BV bounds    x[8]
 BV bounds    x[9]
 BV bounds    x[10]
 BV bounds    x[11]
 BV bounds    x[12]
 BV bounds    x[13]
 BV bounds    x[14]
 BV bounds    x[15]
 BV bounds    x[16]
 BV bounds    x[17]
 BV bounds    x[18]
 BV bounds    x[19]
 BV bounds    x[20]
 BV bounds    x[21]
 BV bounds    x[22]
 BV bounds    x[23]
 BV bounds    x[24]
 BV bounds    x[25]
 BV bounds    x[26]
 BV bounds    x[27]
 BV bounds    x[28]
 BV bounds    x[29]
 BV bounds    x[30]
ENDATA
